
List of user-set options:

                                    Name   Value                used
                           compl_inf_tol = 1                     yes
                         constr_viol_tol = 1                     yes
                            dual_inf_tol = 1000                  yes
                           linear_solver = ma97                  yes
                              ma86_small = 1e-30                  no
                                  ma86_u = 0.0001                 no
                              ma97_order = best                  yes
                              ma97_small = 1e-30                 yes
                            ma97_switch1 = at_start              yes
                            ma97_switch2 = od_hd_reuse           yes
                                  ma97_u = 1e-06                 yes
                               ma97_umax = 0.5                   yes
                                max_iter = 1000                  yes
                    max_refinement_steps = 20                    yes
                    min_refinement_steps = 5                     yes
                                 mu_init = 1e-06                 yes
           mu_superlinear_decrease_power = 1.25                  yes
                   nlp_scaling_min_value = 1e-08                 yes
                        option_file_name = Preset_Case_61_pf.opt  yes
                             output_file = ./tmp/Preset_Case_61_pf.output  yes
                      print_user_options = yes                   yes
        required_infeasibility_reduction = 1                      no
                                     tol = 1e-08                 yes
                   warm_start_bound_frac = 1e-20                 yes
                   warm_start_bound_push = 1e-20                 yes
                   warm_start_init_point = yes                   yes
              warm_start_mult_bound_push = 1e-20                 yes
                warm_start_mult_init_max = 1e+40                 yes
             warm_start_slack_bound_frac = 1e-20                 yes
             warm_start_slack_bound_push = 1e-20                 yes

******************************************************************************
This program contains Ipopt, a library for large-scale nonlinear optimization.
 Ipopt is released as open source code under the Eclipse Public License (EPL).
         For more information visit http://projects.coin-or.org/Ipopt
******************************************************************************

This is Ipopt version 3.12.10, running with linear solver ma97.

Number of nonzeros in equality constraint Jacobian...:   123442
Number of nonzeros in inequality constraint Jacobian.:      213
Number of nonzeros in Lagrangian Hessian.............:    49069

Total number of variables............................:    31591
                     variables with only lower bounds:    12912
                variables with lower and upper bounds:    15130
                     variables with only upper bounds:        0
Total number of equality constraints.................:    31483
Total number of inequality constraints...............:       25
        inequality constraints with only lower bounds:        4
   inequality constraints with lower and upper bounds:        0
        inequality constraints with only upper bounds:       21

iter    objective    inf_pr   inf_du lg(mu)  ||d||  lg(rg) alpha_du alpha_pr  ls
   0 -5.2925218e+00 4.05e-03 1.02e+00  -6.0 0.00e+00    -  0.00e+00 0.00e+00   0
   1 -5.2926731e+00 9.04e+00 4.89e+01  -6.0 4.06e+05    -  8.07e-05 1.14e-03h  1
   2 -5.2926316e+00 9.04e+00 4.89e+01  -6.0 9.18e+02    -  1.16e-04 3.57e-05h  1
   3 -5.2919912e+00 9.04e+00 4.89e+01  -6.0 1.37e+04    -  1.16e-04 2.70e-04h  5
   4 -5.2918969e+00 9.04e+00 8.71e+01  -6.0 8.49e+02    -  1.60e-01 8.23e-05h  7
   5 -5.2918730e+00 9.04e+00 9.88e+01  -6.0 1.31e+04    -  4.79e-04 1.00e-05h  9
   6 -5.2904888e+00 9.03e+00 9.87e+01  -6.0 1.29e+04    -  6.02e-04 6.02e-04s 14
   7r-5.2904888e+00 9.03e+00 9.99e+02   1.0 0.00e+00    -  0.00e+00 0.00e+00R  1
   8r-5.2924322e+00 9.03e+00 9.99e+02   1.0 2.59e+05    -  4.50e-07 2.85e-08f  1
   9 -5.2924130e+00 9.03e+00 1.01e+02  -6.0 5.19e+02    -  1.23e-06 1.47e-05h  1
iter    objective    inf_pr   inf_du lg(mu)  ||d||  lg(rg) alpha_du alpha_pr  ls
  10 -5.2919944e+00 9.03e+00 1.36e+02  -6.0 4.78e+02    -  5.48e-05 2.82e-04h  1
  11 -5.2917854e+00 9.03e+00 1.36e+02  -6.0 4.74e+02    -  1.25e-04 1.25e-04h  1
  12 -5.2909078e+00 9.02e+00 1.10e+02  -6.0 4.78e+02    -  6.59e-04 5.29e-04h  1
  13 -5.2860844e+00 9.00e+00 1.89e+02  -6.0 3.41e+02    -  1.17e-03 2.52e-03h  2
  14 -5.2846661e+00 8.99e+00 1.01e+02  -6.0 3.48e+02    -  2.55e-03 7.59e-04h  2
  15 -5.2836425e+00 8.99e+00 2.63e+02  -6.0 3.49e+02    -  6.24e-03 5.52e-04h  3
  16 -5.2834011e+00 8.99e+00 6.45e+02  -6.0 3.35e+02    -  7.98e-03 1.11e-04h  7
  17 -5.2832741e+00 8.99e+00 6.77e+02  -6.0 3.50e+02    -  6.47e-04 6.72e-05h  8
  18 -5.2533350e+00 8.86e+00 3.58e+02  -6.0 3.37e+02    -  6.24e-03 1.39e-02h  1
  19 -5.1315280e+00 8.37e+00 2.22e+03  -6.0 3.31e+02    -  1.45e-02 5.65e-02h  1
iter    objective    inf_pr   inf_du lg(mu)  ||d||  lg(rg) alpha_du alpha_pr  ls
  20 -5.0293155e+00 7.96e+00 3.53e+03  -6.0 3.18e+02    -  8.07e-02 4.89e-02h  1
  21 -5.0113461e+00 7.89e+00 6.33e+03  -6.0 2.99e+02    -  1.35e-01 8.46e-03h  1
  22 -4.8115520e+00 7.22e+00 4.08e+03  -6.0 2.83e+02    -  3.94e-02 8.62e-02h  1
  23 -4.7327243e+00 6.94e+00 4.47e+03  -6.0 2.72e+02    -  5.26e-02 3.91e-02h  1
  24 -4.4374952e+00 5.88e+00 2.75e+03  -6.0 2.69e+02    -  4.20e-02 1.56e-01h  1
  25 -4.3199402e+00 5.36e+00 2.67e+03  -6.0 2.65e+02    -  1.07e-01 8.85e-02h  1
  26 -3.8790970e+00 3.12e+00 5.14e+03  -6.0 2.62e+02    -  3.32e-01 4.33e-01h  1
  27 -3.9090154e+00 2.67e+00 1.59e+04  -6.0 2.01e+02    -  4.64e-01 1.44e-01h  1
  28 -4.0433188e+00 2.32e+00 9.82e+03  -6.0 1.92e+02    -  5.21e-03 1.32e-01h  1
  29 -4.2461753e+00 1.80e+00 5.38e+03  -6.0 1.49e+02    -  1.56e-01 2.25e-01h  1
iter    objective    inf_pr   inf_du lg(mu)  ||d||  lg(rg) alpha_du alpha_pr  ls
  30 -4.4395786e+00 1.43e+00 7.63e+03  -6.0 9.42e+01    -  1.53e-02 2.06e-01h  1
  31 -4.8272025e+00 1.74e+00 1.63e+04  -6.0 5.57e+01    -  3.47e-01 5.05e-01h  1
  32 -5.1939592e+00 1.95e+00 1.16e+04  -6.0 4.30e+01    -  1.68e-01 3.96e-01h  1
  33 -5.2163342e+00 1.60e+00 8.17e+03  -6.0 3.30e+01    -  2.74e-01 2.57e-01h  1
  34 -5.2885210e+00 1.35e+00 6.78e+03  -6.0 4.16e+01    -  1.84e-01 1.51e-01h  1
  35 -5.3078896e+00 1.20e+00 1.01e+04  -6.0 4.92e+01    -  5.72e-01 1.16e-01h  1
  36 -5.4294258e+00 8.47e-01 7.11e+03  -6.0 1.03e+02    -  2.80e-01 2.92e-01h  1
  37 -5.4785802e+00 7.60e-01 9.01e+03  -6.0 1.32e+02    -  3.75e-01 1.02e-01h  1
  38 -5.5153955e+00 2.46e+00 5.06e+03  -6.0 8.32e+01    -  3.77e-01 4.45e-01h  1
  39 -5.5417198e+00 1.67e+00 1.34e+03  -6.0 1.19e+02    -  4.24e-02 3.58e-01h  1
iter    objective    inf_pr   inf_du lg(mu)  ||d||  lg(rg) alpha_du alpha_pr  ls
  40 -5.6327379e+00 1.23e+00 9.75e+03  -6.0 7.24e+01    -  3.53e-02 8.46e-01h  1
  41 -5.6583367e+00 8.27e-01 5.45e+03  -6.0 1.65e+02    -  5.64e-01 4.58e-01h  1
  42 -5.7386489e+00 1.92e+00 5.55e+03  -6.0 3.24e+02    -  2.39e-01 9.83e-01h  1
  43 -5.7300468e+00 1.14e+00 1.72e+03  -6.0 8.76e+01    -  8.47e-01 4.11e-01h  1
  44 -5.7402476e+00 8.89e-01 1.35e+03  -6.0 3.28e+02    -  2.96e-01 2.22e-01h  1
  45 -5.7465145e+00 4.98e-01 6.40e+02  -6.0 3.04e+02    -  5.34e-01 5.58e-01h  1
  46 -5.7480218e+00 4.70e-01 2.78e+04  -6.0 5.19e+02    -  7.08e-01 1.02e-01h  1
  47 -5.7480327e+00 4.70e-01 3.04e+04  -6.0 1.22e+03    -  8.08e-02 4.10e-04h  1
  48 -5.7551410e+00 8.45e-01 2.23e+04  -6.0 1.30e+03    -  2.27e-01 2.47e-01f  1
  49 -5.7531731e+00 4.00e-01 2.50e+06  -6.0 4.64e+01  -4.0 2.16e-02 5.26e-01h  1
iter    objective    inf_pr   inf_du lg(mu)  ||d||  lg(rg) alpha_du alpha_pr  ls
  50 -5.7545764e+00 4.06e-01 2.33e+06  -6.0 1.29e+03    -  1.61e-02 6.48e-02h  1
  51 -5.7516691e+00 9.52e-02 5.48e+05  -6.0 1.87e+00  -4.5 1.30e-01 7.65e-01h  1
  52 -5.7548882e+00 2.48e-01 4.84e+05  -6.0 1.32e+03    -  1.14e-02 1.17e-01h  1
  53 -5.7538415e+00 2.00e-03 1.75e+02  -6.0 3.20e+00  -5.0 5.97e-01 1.00e+00h  1
  54 -5.7553341e+00 6.48e-03 3.03e+01  -6.0 1.55e+01  -5.4 9.98e-01 8.12e-01h  1
  55 -5.7612451e+00 9.16e-02 3.84e+01  -6.0 4.75e+01  -5.9 6.99e-01 1.00e+00f  1
  56 -5.7677362e+00 1.24e-01 2.52e+01  -6.0 5.55e+01  -6.4 9.54e-01 1.00e+00h  1
  57 -5.7770261e+00 4.94e-01 2.97e+01  -6.0 1.07e+02  -6.9 1.00e+00 1.00e+00h  1
  58 -5.7843442e+00 2.94e-01 2.10e+01  -6.0 3.23e+02  -7.3 4.01e-01 4.13e-01h  1
  59 -5.8007799e+00 1.36e+00 1.55e+01  -6.0 1.20e+03  -7.8 2.58e-01 3.16e-01h  1
iter    objective    inf_pr   inf_du lg(mu)  ||d||  lg(rg) alpha_du alpha_pr  ls
  60 -5.8136975e+00 1.43e+00 1.40e+01  -6.0 2.03e+03  -8.3 2.31e-01 1.49e-01h  1
  61 -5.8248089e+00 1.15e+00 1.33e+02  -6.0 8.21e+02  -7.9 6.76e-01 2.52e-01h  1
  62 -5.8832781e+00 1.78e+01 8.21e+03  -6.0 1.65e+03  -8.3 7.90e-02 1.00e+00h  1
  63 -5.8724406e+00 4.78e+00 8.80e+03  -6.0 5.59e+01  -5.2 2.35e-02 7.31e-01h  1
  64 -5.8719636e+00 4.80e-01 8.83e+02  -6.0 8.40e+00  -5.7 8.15e-01 9.00e-01h  1
  65 -5.8734733e+00 1.50e-02 1.94e+00  -6.0 2.26e+01  -6.2 1.00e+00 1.00e+00h  1
  66 -5.8779768e+00 1.57e-01 1.75e+00  -6.0 7.31e+01  -6.6 1.00e+00 1.00e+00h  1
  67 -5.8887889e+00 1.35e+00 6.08e+00  -6.0 3.16e+02  -7.1 7.21e-01 6.66e-01h  1
  68 -5.9003631e+00 2.66e+00 7.80e+03  -6.0 3.72e+02  -7.6 9.32e-01 1.00e+00h  1
  69 -5.9081207e+00 2.16e+00 1.59e+04  -6.0 6.87e+02  -7.2 2.79e-01 1.87e-01h  1
iter    objective    inf_pr   inf_du lg(mu)  ||d||  lg(rg) alpha_du alpha_pr  ls
  70 -5.9417976e+00 9.38e+00 7.93e+04  -6.0 4.16e+03    -  4.28e-01 6.74e-01h  1
  71 -5.9368407e+00 5.71e+00 2.86e+04  -6.0 3.84e+01  -5.8 8.75e-01 3.92e-01h  1
  72 -5.9354068e+00 3.43e-01 1.34e+02  -6.0 1.10e+02  -6.3 1.00e+00 1.00e+00h  1
  73 -5.9508947e+00 1.37e+00 4.61e+02  -6.0 4.54e+03    -  3.88e-02 4.24e-02h  1
  74 -5.9529359e+00 1.32e+00 6.68e+03  -6.0 1.80e+03    -  2.28e-02 4.48e-02h  1
  75 -5.9674093e+00 6.67e+00 3.46e+03  -6.0 1.59e+03    -  9.79e-01 1.00e+00f  1
  76 -5.9689678e+00 6.00e+00 2.42e+04  -6.0 3.52e+02    -  3.98e-01 9.90e-02h  1
  77 -5.9703227e+00 7.62e-01 2.54e+03  -6.0 1.65e+02    -  1.00e+00 9.82e-01h  1
  78 -5.9702345e+00 2.56e+00 1.49e+03  -6.0 7.16e+02    -  5.82e-01 5.68e-01h  1
  79 -5.9671682e+00 1.33e-01 5.68e+03  -6.0 9.18e+01    -  4.01e-01 1.00e+00h  1
iter    objective    inf_pr   inf_du lg(mu)  ||d||  lg(rg) alpha_du alpha_pr  ls
  80 -5.9670630e+00 2.54e-03 5.29e-01  -6.0 8.97e+00  -6.8 1.00e+00 1.00e+00h  1
  81 -5.9670484e+00 9.19e-05 1.33e+00  -6.0 1.08e+01  -7.3 1.00e+00 1.00e+00H  1
  82 -5.9670790e+00 1.32e-02 2.30e-02  -6.0 2.97e+01  -7.7 1.00e+00 1.00e+00h  1
  83 -5.9671394e+00 6.86e-01 8.81e-01  -6.0 1.89e+02  -8.2 1.00e+00 1.00e+00h  1
  84 -5.9672263e+00 2.93e-01 2.47e+01  -6.0 1.78e+01  -6.9 1.00e+00 5.85e-01h  1
  85 -5.9675477e+00 7.31e-01 1.33e+04  -6.0 9.01e+02    -  6.82e-01 1.48e-01h  1
  86 -5.9681249e+00 2.65e-01 1.51e+02  -6.0 1.17e+02    -  1.00e+00 1.00e+00h  1
  87 -5.9683647e+00 1.59e-01 4.79e+03  -6.0 7.30e+01  -7.4 2.69e-01 4.01e-01h  1
  88 -5.9689217e+00 6.66e-01 9.57e+04  -6.0 8.35e+03    -  1.92e-03 2.42e-02h  2
  89 -5.9694776e+00 1.76e+00 7.59e+04  -6.0 1.44e+03    -  4.65e-02 2.01e-01h  1
iter    objective    inf_pr   inf_du lg(mu)  ||d||  lg(rg) alpha_du alpha_pr  ls
  90 -5.9694207e+00 1.76e+00 7.49e+04  -6.0 2.86e+03    -  1.45e-01 1.24e-02h  7
  91 -5.9697180e+00 1.77e+00 9.11e+01  -6.0 3.52e+02    -  4.13e-01 1.00e+00h  1
  92 -5.9701256e+00 1.23e+01 2.07e+01  -6.0 9.29e+02    -  3.17e-01 1.00e+00h  1
  93 -5.9699094e+00 4.25e+00 5.37e-01  -6.0 5.46e+02    -  1.00e+00 1.00e+00h  1
  94 -5.9696064e+00 1.71e-02 2.34e-02  -6.0 3.07e+01    -  1.00e+00 1.00e+00h  1
  95 -5.9696052e+00 7.81e-07 7.18e-06  -6.0 2.19e-01    -  1.00e+00 1.00e+00h  1
  96 -5.9697093e+00 2.66e+00 2.25e+01  -7.5 5.76e+02    -  6.48e-01 7.19e-01h  1
  97 -5.9697105e+00 7.63e-01 1.43e+01  -7.5 1.67e+02    -  1.00e+00 8.30e-01h  1
  98 -5.9697071e+00 1.45e-02 8.46e-02  -7.5 2.94e+01    -  1.00e+00 1.00e+00h  1
  99 -5.9697070e+00 2.39e-06 9.88e-07  -7.5 4.02e-01    -  1.00e+00 1.00e+00h  1
iter    objective    inf_pr   inf_du lg(mu)  ||d||  lg(rg) alpha_du alpha_pr  ls
 100 -5.9697070e+00 2.89e-10 1.47e-11  -7.5 3.84e-05    -  1.00e+00 1.00e+00h  1
 101 -5.9697085e+00 3.75e-03 8.99e-01  -9.0 1.86e+01    -  9.24e-01 8.26e-01h  1
 102 -5.9697087e+00 1.68e-04 1.01e-03  -9.0 3.24e+00    -  1.00e+00 1.00e+00h  1
 103 -5.9697087e+00 2.89e-10 3.96e-09  -9.0 2.99e-03    -  1.00e+00 1.00e+00h  1

Number of Iterations....: 103

                                   (scaled)                 (unscaled)
Objective...............:  -4.6638349607699512e+00   -5.9697087497855374e+00
Dual infeasibility......:   3.9630551607984135e-09    5.0727106058219690e-09
Constraint violation....:   2.8915572930846012e-10    2.8915572930846012e-10
Complementarity.........:   1.3668768409933547e-09    1.7496023564714940e-09
Overall NLP error.......:   3.9630551607984135e-09    5.0727106058219690e-09


Number of objective function evaluations             = 165
Number of objective gradient evaluations             = 104
Number of equality constraint evaluations            = 165
Number of inequality constraint evaluations          = 165
Number of equality constraint Jacobian evaluations   = 105
Number of inequality constraint Jacobian evaluations = 105
Number of Lagrangian Hessian evaluations             = 103
Total CPU secs in IPOPT (w/o function evaluations)   =    232.065
Total CPU secs in NLP function evaluations           =      4.044

EXIT: Optimal Solution Found.
